(set-logic QF_FPBV)
(set-option :produce-models true)
(set-info :source |Random FP created by PyMPF|)
(set-info :category random)
(set-info :status sat)
;; fp.from.ubv(BitVec 128)
(declare-const x (_ BitVec 128))
(assert (bvsle x #b01010001001110101110010100001100010100110010000100101011100010111110110101011100100111101000111100111011100100111101111011101110))
;; x should be 107973266524637748121541108643031932654
(declare-const r Float16)
(assert (= r ((_ to_fp 5 11) RNA x)))
(assert (fp.leq r (fp #b0 #b11111 #b0000000000)))
(check-sat)
(exit)
